; benchmark generated from python API
(set-info :status unknown)
(declare-datatypes ((IntState 0)) (((Mk1 (val1 Int)) (Mk2 (val2 Int)))))
 (declare-fun c_main_~i~6 () Int)
(declare-fun c_main_~j~6 () Int)
(declare-fun c_main_~k~6 () Int)
(assert
 (let (($x35 (<= 1 c_main_~i~6)))
 (let (($x11 (exists ((v_nnf_86_st IntState) (val!26 Int) )(let (($x46 (and (<= c_main_~k~6 (+ (val2 v_nnf_86_st) 1)) (<= 4 (val2 v_nnf_86_st)) (<= (+ (* 2 (val2 v_nnf_86_st)) 1) c_main_~j~6))))
 (let (($x52 (not (= v_nnf_86_st (Mk1 val!26)))))
 (and $x52 $x46))))
 ))
 (let (($x80 (<= 0 c_main_~i~6)))
 (let (($x7 (<= 2 c_main_~i~6)))
 (let ((?x127 (* 2 c_main_~i~6)))
 (let (($x139 (<= ?x127 c_main_~j~6)))
 (let (($x10 (<= 4 c_main_~i~6)))
 (let (($x88 (<= (+ ?x127 1) c_main_~j~6)))
 (let (($x85 (<= 3 c_main_~i~6)))
 (let (($x95 (and (<= c_main_~k~6 c_main_~i~6) $x88 $x10)))
 (and $x95 (not (and $x85 $x88 $x10 $x139 $x7 $x80 $x11 $x35))))))))))))))
(check-sat)
